WARNING: for repeatability, setting FPU to use double precision
============================[ Problem Statistics ]=============================
|                                                                             |
|  Number of variables:            50                                         |
|  Number of clauses:             218                                         |
|  Parse time:                   0.00 s                                       |
|                                                                             |
============================[ Search Statistics ]==============================
| Conflicts |          ORIGINAL         |          LEARNT          | Progress |
|           |    Vars  Clauses Literals |    Limit  Clauses Lit/Cl |          |
===============================================================================
===============================================================================
restarts              : 1
conflicts             : 51             (35027 /sec)
decisions             : 80             (0.00 % random) (54945 /sec)
propagations          : 689            (473214 /sec)
conflict literals     : 185            (20.26 % deleted)
Memory used           : 20.00 MB
CPU time              : 0.001456 s

SATISFIABLE
